p edge 28 196
e 1 3
e 1 6
e 1 11
e 1 19
e 1 21
e 1 23
e 1 27
e 2 3
e 2 3
e 2 6
e 2 11
e 2 12
e 2 25
e 2 25
e 3 1
e 3 4
e 3 6
e 3 7
e 3 8
e 3 13
e 3 17
e 4 5
e 4 12
e 4 18
e 4 22
e 4 26
e 4 27
e 4 27
e 5 1
e 5 2
e 5 10
e 5 11
e 5 17
e 5 18
e 5 27
e 6 8
e 6 16
e 6 17
e 6 20
e 6 20
e 6 26
e 6 27
e 7 3
e 7 12
e 7 14
e 7 16
e 7 17
e 7 22
e 7 27
e 8 3
e 8 12
e 8 15
e 8 16
e 8 17
e 8 23
e 8 28
e 9 10
e 9 11
e 9 16
e 9 18
e 9 19
e 9 20
e 9 25
e 10 1
e 10 3
e 10 4
e 10 15
e 10 17
e 10 22
e 10 24
e 11 9
e 11 14
e 11 15
e 11 18
e 11 19
e 11 23
e 11 27
e 12 2
e 12 2
e 12 9
e 12 11
e 12 14
e 12 17
e 12 24
e 13 1
e 13 10
e 13 10
e 13 25
e 13 26
e 13 27
e 13 27
e 14 2
e 14 8
e 14 9
e 14 17
e 14 19
e 14 20
e 14 22
e 15 4
e 15 7
e 15 14
e 15 20
e 15 21
e 15 22
e 15 24
e 16 1
e 16 4
e 16 7
e 16 13
e 16 21
e 16 24
e 16 26
e 17 15
e 17 16
e 17 18
e 17 19
e 17 24
e 17 27
e 17 27
e 18 3
e 18 9
e 18 12
e 18 13
e 18 19
e 18 22
e 18 23
e 19 5
e 19 8
e 19 16
e 19 23
e 19 25
e 19 26
e 19 26
e 20 2
e 20 4
e 20 4
e 20 14
e 20 24
e 20 26
e 20 27
e 21 1
e 21 1
e 21 3
e 21 6
e 21 10
e 21 13
e 21 16
e 22 7
e 22 8
e 22 9
e 22 11
e 22 11
e 22 11
e 22 21
e 23 1
e 23 7
e 23 13
e 23 19
e 23 20
e 23 24
e 23 28
e 24 1
e 24 4
e 24 16
e 24 20
e 24 25
e 24 26
e 24 28
e 25 2
e 25 8
e 25 12
e 25 14
e 25 16
e 25 16
e 25 21
e 26 5
e 26 8
e 26 8
e 26 12
e 26 14
e 26 21
e 26 25
e 27 4
e 27 6
e 27 9
e 27 10
e 27 19
e 27 24
e 27 24
e 28 3
e 28 11
e 28 11
e 28 12
e 28 12
e 28 13
e 28 20
